Route #1: 6 2 27
Route #2: 31 14
Route #3: 4 22
Route #4: 18 9 10
Route #5: 15 5
Route #6: 1 7 17
Route #7: 13 16 19 23 3 21
Route #8: 29 8 20 24
Route #9: 25 11 28
Route #10: 12
Route #11: 30 26

Cost: 2012.9777798627274
